GLPSOL--GLPK LP/MIP Solver 5.0
Parameter(s) specified in the command line:
 --lp ../modeles/4_289.lp --log 4_289.log
Reading problem data from '../modeles/4_289.lp'...
1173 rows, 2320 columns, 8112 non-zeros
1156 integer variables, all of which are binary
3503 lines were read
GLPK Integer Optimizer 5.0
1173 rows, 2320 columns, 8112 non-zeros
1156 integer variables, all of which are binary
Preprocessing...
1144 constraint coefficient(s) were reduced
1173 rows, 2316 columns, 8108 non-zeros
1156 integer variables, all of which are binary
Scaling...
 A: min|aij| =  4.789e-05  max|aij| =  4.000e+00  ratio =  8.352e+04
GM: min|aij| =  5.882e-02  max|aij| =  1.700e+01  ratio =  2.890e+02
EQ: min|aij| =  3.460e-03  max|aij| =  1.000e+00  ratio =  2.890e+02
2N: min|aij| =  3.065e-03  max|aij| =  1.774e+00  ratio =  5.787e+02
Constructing initial basis...
Size of triangular part is 1173
Solving LP relaxation...
GLPK Simplex Optimizer 5.0
1173 rows, 2316 columns, 8108 non-zeros
      0: obj =   8.000000000e+00 inf =   1.950e+01 (9)
     67: obj =   4.999102011e-01 inf =   0.000e+00 (0)
*   236: obj =  -1.999819781e+00 inf =   1.518e-15 (0)
OPTIMAL LP SOLUTION FOUND
Integer optimization begins...
Long-step dual simplex will be used
+   236: mip =     not found yet >=              -inf        (1; 0)
+   566: >>>>>  -1.999819781e+00 >=  -1.999819781e+00 < 0.1% (328; 0)
+   566: mip =  -1.999819781e+00 >=     tree is empty   0.0% (0; 655)
INTEGER OPTIMAL SOLUTION FOUND
Time used:   0.5 secs
Memory used: 3.4 Mb (3591566 bytes)
